10J3M/DAT/10J3MULR-5.dat
10 3
48.5797 25.7738
48.4853 46.973
10.6693 18.6266
30.7992 47.3515
4.4054 40.5431
25.9792 31.7342
17.1965 37.658
19.7508 6.1025
25.4742 0.9216
27.8949 46.3817
100.6887