10J3M/SOL/10J3MULR-5.sol
solution status: optimal solution found
objective value:                              86.4115
x#1#1                               0.095161829638553 	(obj:0)
x#1#2                               0.904838170361447 	(obj:0)
x#2#1                                               1 	(obj:0)
x#3#1                                               1 	(obj:0)
x#4#3                                               1 	(obj:0)
x#5#1                               0.654461993169291 	(obj:0)
x#5#2                               0.345538006830709 	(obj:0)
x#6#3                                               1 	(obj:0)
x#7#2                                               1 	(obj:0)
x#8#1                                               1 	(obj:0)
x#9#2                               0.332236699116099 	(obj:0)
x#9#3                               0.667763300883901 	(obj:0)
x#10#2                              0.547502800848063 	(obj:0)
x#10#3                              0.452497199151937 	(obj:0)
z                                             86.4115 	(obj:1)
